NAME: usa115475
TYPE: TSP
COMMENT: 115,474 towns and cities in the United States
COMMENT: Created July 7, 2012, www.math.uwaterloo/tsp/data/usa/
DIMENSION: 10
EDGE_WEIGHT_TYPE: EUC_2D
NODE_COORD_SECTION
1 33613.158800 86118.306100
5 33290.392600 87198.053000
19678 33568.744800 82432.627200
33000 37001.176800 94740.503300
115231 44903.027000 107035.072300
115232 41590.517200 108483.992800
115233 43200.513500 108774.564300
40717 42169.540100 71620.343900
88000 33843.779900 79133.096300
115463 43426.038900 110799.094700
